File : Instances/p36
Used 75s
13967

1 0 0 0 0 1 0 0 1 0 0 0 0 0 1 0 0 1 0 0 1 0 0 0 1 1 0 0 0 0 
20 25 20 14 20 5 14 24 14 17 5 8 8 20 17 14 14 17 5 0 14 0 5 17 5 8 17 24 5 24 5 25 8 25 20 20 24 24 0 14 0 14 24 8 24 14 0 20 25 8 5 8 14 5 20 20 17 25 0 14 0 5 20 25 0 25 24 0 24 5 8 20 5 17 24 8 24 20 14 24 20 0 20 17 17 17 17 0 20 5 17 24 17 0 0 5 14 14 25 20 8 17 17 25 17 25 0 0 14 8 14 14 17 0 25 25 24 24 24 24 5 8 25 20 8 0 5 24 0 25 0 0 24 5 8 14 17 5 20 17 0 8 20 14 8 25 25 5 17 5 
